Gurobi Optimizer version 9.1.2 build v9.1.2rc0 (linux64)
Thread count: 36 physical cores, 72 logical processors, using up to 32 threads
Optimize a model with 12 rows, 57 columns and 590 nonzeros
Model fingerprint: 0xf32eec78
Model has 47 quadratic constraints
Coefficient statistics:
  Matrix range     [2e-05, 3e+00]
  QMatrix range    [1e+00, 1e+00]
  QLMatrix range   [1e+00, 1e+00]
  Objective range  [8e-03, 7e-01]
  Bounds range     [1e+00, 1e+00]
  RHS range        [1e+00, 1e+00]
Presolve removed 9 rows and 0 columns

Continuous model is non-convex -- solving as a MIP.

Presolve removed 9 rows and 0 columns
Presolve time: 0.00s
Presolved: 189 rows, 57 columns, 443 nonzeros
Presolved model has 47 bilinear constraint(s)
Variable types: 57 continuous, 0 integer (0 binary)

Root relaxation: objective -1.743721e+00, 44 iterations, 0.00 seconds

    Nodes    |    Current Node    |     Objective Bounds      |     Work
 Expl Unexpl |  Obj  Depth IntInf | Incumbent    BestBd   Gap | It/Node Time

     0     0   -1.74372    0   38          -   -1.74372      -     -    0s
H    0     0                       0.6147548   -1.74372   384%     -    0s
     0     0   -1.64739    0    1    0.61475   -1.64739   368%     -    0s
H    0     0                      -1.6450460   -1.64739  0.14%     -    0s
     0     0     cutoff    0        -1.64505   -1.64505  0.00%     -    0s

Cutting planes:
  RLT: 25
  BQP: 3

Explored 1 nodes (76 simplex iterations) in 0.01 seconds
Thread count was 32 (of 72 available processors)

Solution count 2: -1.64505 0.614755 
No other solutions better than -1.64505

Optimal solution found (tolerance 1.00e-04)
Best objective -1.645045978473e+00, best bound -1.645045978473e+00, gap 0.0000%

User-callback calls 78, time in user-callback 0.00 sec
Gurobi Optimizer version 9.1.2 build v9.1.2rc0 (linux64)
Thread count: 36 physical cores, 72 logical processors, using up to 32 threads
Optimize a model with 24 rows, 125 columns and 2580 nonzeros
Model fingerprint: 0xd08257ac
Model has 105 quadratic constraints
Coefficient statistics:
  Matrix range     [4e-06, 5e+01]
  QMatrix range    [1e+00, 1e+00]
  QLMatrix range   [1e+00, 1e+00]
  Objective range  [1e-02, 1e+00]
  Bounds range     [1e+00, 1e+00]
  RHS range        [1e+00, 1e+00]
Presolve removed 10 rows and 0 columns

Continuous model is non-convex -- solving as a MIP.

Presolve removed 10 rows and 0 columns
Presolve time: 0.00s
Presolved: 429 rows, 125 columns, 2142 nonzeros
Presolved model has 105 bilinear constraint(s)
Variable types: 125 continuous, 0 integer (0 binary)

Root relaxation: objective -5.386620e+00, 105 iterations, 0.00 seconds

    Nodes    |    Current Node    |     Objective Bounds      |     Work
 Expl Unexpl |  Obj  Depth IntInf | Incumbent    BestBd   Gap | It/Node Time

     0     0   -5.38662    0   95          -   -5.38662      -     -    0s
H    0     0                       0.1407043   -5.38662  3928%     -    0s
     0     0   -4.51080    0   83    0.14070   -4.51080  3306%     -    0s
H    0     0                      -2.6547977   -4.51080  69.9%     -    0s
     0     0   -4.47168    0   57   -2.65480   -4.47168  68.4%     -    0s
     0     0   -4.37584    0   72   -2.65480   -4.37584  64.8%     -    0s
     0     0   -4.35794    0   62   -2.65480   -4.35794  64.2%     -    0s
     0     0   -4.31812    0   59   -2.65480   -4.31812  62.7%     -    0s
     0     0   -4.31523    0   72   -2.65480   -4.31523  62.5%     -    0s
     0     0   -4.31122    0   72   -2.65480   -4.31122  62.4%     -    0s
     0     0   -4.31006    0   72   -2.65480   -4.31006  62.3%     -    0s
     0     0   -4.30663    0   72   -2.65480   -4.30663  62.2%     -    0s
     0     0   -4.30575    0   72   -2.65480   -4.30575  62.2%     -    0s
     0     0   -4.30558    0   72   -2.65480   -4.30558  62.2%     -    0s
H    0     0                      -3.2214321   -4.30558  33.7%     -    0s
H    0     0                      -3.3532509   -4.30558  28.4%     -    0s
H    0     0                      -3.3880861   -4.30558  27.1%     -    0s
     0     2   -4.30558    0   72   -3.38809   -4.30558  27.1%     -    0s
*  473   312              16      -3.4030960   -4.02577  18.3%  31.6    0s
*  569   360              18      -3.4053908   -4.02577  18.2%  29.6    0s
*  571   360              19      -3.4055054   -4.02577  18.2%  29.5    0s
*  683   434              22      -3.4932463   -4.02577  15.2%  27.3    0s
*  740   452              21      -3.5004314   -3.87484  10.7%  26.5    0s
*  896   508              16      -3.5108198   -3.87484  10.4%  24.6    0s
*  897   508              16      -3.5108208   -3.87484  10.4%  24.6    0s
*  994   508              19      -3.5941583   -3.87484  7.81%  24.0    0s
* 1201   366              19      -3.5941642   -3.79998  5.73%  23.5    0s
* 1468   276              13      -3.6001446   -3.72883  3.57%  21.4    0s
* 1609   261              17      -3.6034797   -3.66909  1.82%  20.3    0s
* 1680   261              19      -3.6058747   -3.66909  1.75%  19.8    0s
* 1682   261              20      -3.6059163   -3.66909  1.75%  19.7    0s
* 1837   246              20      -3.6113844   -3.66909  1.60%  18.3    0s
* 2214    26              16      -3.6127240   -3.64175  0.80%  15.9    0s
* 2455    28              17      -3.6128116   -3.61335  0.01%  14.6    0s
* 2482    17              19      -3.6128685   -3.61335  0.01%  14.4    0s
* 2494    17              19      -3.6132170   -3.61335  0.00%  14.4    0s
* 2515    17              21      -3.6132181   -3.61333  0.00%  14.3    0s
* 2522    17              23      -3.6132182   -3.61333  0.00%  14.2    0s

Cutting planes:
  RLT: 52
  BQP: 8
  PSD: 32

Explored 2692 nodes (36997 simplex iterations) in 0.75 seconds
Thread count was 32 (of 72 available processors)

Solution count 10: -3.61322 -3.61322 -3.61322 ... -3.60348

Optimal solution found (tolerance 1.00e-04)
Best objective -3.613218154790e+00, best bound -3.613317106693e+00, gap 0.0027%

User-callback calls 5684, time in user-callback 0.00 sec



objective value: -3.6132181547904425
objective bound: -3.613317106692933
x_opt: [1.0, 0.0, 1.0, 0.0, 0.12946564009585193, 0.0, 1.0, 1.0, 0.538260040399508, 0.0, 0.0, 0.0, 0.6656451888162895, 0.0, 0.4506720812291438, 0.2902654494978118, 0.0, 0.0, 0.0, 0.0]
GUROBI solution time: 0.7488389015197754




